119 48 011 1
1
806 113 1
671 114 1
604 115 1
636 116 1
610 117 1
719 118 1
634 119 1
726 108 1
641 109 1
665 110 1
737 111 1
791 112 1
638 113 1
834 114 1
646 115 1
629 116 1
800 117 1
581 118 1
526 119 1
567 108 1
698 109 1
741 110 1
586 111 1
627 112 1
813 113 1
583 114 1
572 115 1
640 116 1
771 117 1
854 118 1
749 119 1
832 108 1
696 109 1
657 110 1
603 111 1
599 112 1
596 113 1
577 114 1
654 115 1
571 116 1
652 117 1
631 118 1
708 119 1
662 108 1
1007 109 1
739 110 1
743 111 1
622 112 1
1
1
1
1
1
1
1
1
1
1
1
1
1
1
1
1
1
1
1
1
1
1
1
1
1
1
1
1
1
1
1
1
1
1
1
1
1
1
1
1
1
1
1
1
1
1
1
1
1
1
1
1
1
1
1
1
1
1
1 9 725 21 566 33 831 45 661
1 10 640 22 697 34 695 46 1006
1 11 664 23 740 35 656 47 738
1 12 736 24 585 36 602 48 742
1 13 790 25 626 37 598 49 621
1 2 805 14 637 26 812 38 595
1 3 670 15 833 27 582 39 576
1 4 603 16 645 28 571 40 653
1 5 635 17 628 29 639 41 570
1 6 609 18 799 30 770 42 651
1 7 718 19 580 31 853 43 630
1 8 633 20 525 32 748 44 707
